p cnf 265 1057
c p weight -7 1 0
c p weight 7 -1 0
c p weight 11 6.12323399573676603586882014729198302312846062338790031898128063403419218957424163818359375E-17 0
c p weight -11 1 0
c p weight 12 1 0
c p weight -12 1 0
c p weight -9 1 0
c p weight 9 -1 0
c p weight -13 1 0
c p weight 13 -1 0
c p weight 17 -0.416146836547142406903532219075714237987995147705078125 0
c p weight -17 1 0
c p weight 18 0.9092974268256817094169264237280003726482391357421875 0
c p weight -18 1 0
c p weight -15 1 0
c p weight 15 -1 0
c p weight -19 1 0
c p weight 19 -1 0
c p weight 23 6.12323399573676603586882014729198302312846062338790031898128063403419218957424163818359375E-17 0
c p weight -23 1 0
c p weight 24 1 0
c p weight -24 1 0
c p weight -21 1 0
c p weight 21 -1 0
c p weight -25 1 0
c p weight 25 -1 0
c p weight 29 -0.416146836547142406903532219075714237987995147705078125 0
c p weight -29 1 0
c p weight 30 0.9092974268256817094169264237280003726482391357421875 0
c p weight -30 1 0
c p weight -27 1 0
c p weight 27 -1 0
c p weight -31 1 0
c p weight 31 -1 0
c p weight 36 -0.9684306916316953728340877205482684075832366943359375 0
c p weight -36 1 0
c p weight 37 0.249282962726609602643890184481278993189334869384765625 0
c p weight -37 1 0
c p weight -34 1 0
c p weight 34 -1 0
c p weight -38 1 0
c p weight 38 -1 0
c p weight -41 1 0
c p weight 41 -1 0
c p weight 45 6.12323399573676603586882014729198302312846062338790031898128063403419218957424163818359375E-17 0
c p weight -45 1 0
c p weight 46 1 0
c p weight -46 1 0
c p weight -43 1 0
c p weight 43 -1 0
c p weight -47 1 0
c p weight 47 -1 0
c p weight 51 -0.416146836547142406903532219075714237987995147705078125 0
c p weight -51 1 0
c p weight 52 0.9092974268256817094169264237280003726482391357421875 0
c p weight -52 1 0
c p weight -49 1 0
c p weight 49 -1 0
c p weight -53 1 0
c p weight 53 -1 0
c p weight 58 -0.9684306916316953728340877205482684075832366943359375 0
c p weight -58 1 0
c p weight 59 0.249282962726609602643890184481278993189334869384765625 0
c p weight -59 1 0
c p weight -56 1 0
c p weight 56 -1 0
c p weight -60 1 0
c p weight 60 -1 0
c p weight -63 1 0
c p weight 63 -1 0
c p weight 67 6.12323399573676603586882014729198302312846062338790031898128063403419218957424163818359375E-17 0
c p weight -67 1 0
c p weight 68 1 0
c p weight -68 1 0
c p weight -65 1 0
c p weight 65 -1 0
c p weight -69 1 0
c p weight 69 -1 0
c p weight 73 -0.416146836547142406903532219075714237987995147705078125 0
c p weight -73 1 0
c p weight 74 0.9092974268256817094169264237280003726482391357421875 0
c p weight -74 1 0
c p weight -71 1 0
c p weight 71 -1 0
c p weight -75 1 0
c p weight 75 -1 0
c p weight 80 -0.9684306916316953728340877205482684075832366943359375 0
c p weight -80 1 0
c p weight 81 0.249282962726609602643890184481278993189334869384765625 0
c p weight -81 1 0
c p weight -78 1 0
c p weight 78 -1 0
c p weight -82 1 0
c p weight 82 -1 0
c p weight -85 1 0
c p weight 85 -1 0
c p weight 89 6.12323399573676603586882014729198302312846062338790031898128063403419218957424163818359375E-17 0
c p weight -89 1 0
c p weight 90 1 0
c p weight -90 1 0
c p weight -87 1 0
c p weight 87 -1 0
c p weight -91 1 0
c p weight 91 -1 0
c p weight 95 -0.416146836547142406903532219075714237987995147705078125 0
c p weight -95 1 0
c p weight 96 0.9092974268256817094169264237280003726482391357421875 0
c p weight -96 1 0
c p weight -93 1 0
c p weight 93 -1 0
c p weight -97 1 0
c p weight 97 -1 0
c p weight 102 -0.9684306916316953728340877205482684075832366943359375 0
c p weight -102 1 0
c p weight 103 0.249282962726609602643890184481278993189334869384765625 0
c p weight -103 1 0
c p weight -100 1 0
c p weight 100 -1 0
c p weight -104 1 0
c p weight 104 -1 0
c p weight -107 1 0
c p weight 107 -1 0
c p weight 111 6.12323399573676603586882014729198302312846062338790031898128063403419218957424163818359375E-17 0
c p weight -111 1 0
c p weight 112 1 0
c p weight -112 1 0
c p weight -109 1 0
c p weight 109 -1 0
c p weight -113 1 0
c p weight 113 -1 0
c p weight 117 -0.416146836547142406903532219075714237987995147705078125 0
c p weight -117 1 0
c p weight 118 0.9092974268256817094169264237280003726482391357421875 0
c p weight -118 1 0
c p weight -115 1 0
c p weight 115 -1 0
c p weight -119 1 0
c p weight 119 -1 0
c p weight 124 -0.9684306916316953728340877205482684075832366943359375 0
c p weight -124 1 0
c p weight 125 0.249282962726609602643890184481278993189334869384765625 0
c p weight -125 1 0
c p weight -122 1 0
c p weight 122 -1 0
c p weight -126 1 0
c p weight 126 -1 0
c p weight 131 1 0
c p weight -131 1 0
c p weight 132 0 0
c p weight -132 1 0
c p weight -129 1 0
c p weight 129 -1 0
c p weight 135 6.12323399573676603586882014729198302312846062338790031898128063403419218957424163818359375E-17 0
c p weight -135 1 0
c p weight 136 1 0
c p weight -136 1 0
c p weight -133 1 0
c p weight 133 -1 0
c p weight 139 -0.6933167527464927371028124980512075126171112060546875 0
c p weight -139 1 0
c p weight 140 -0.72063297201908460554165003486559726297855377197265625 0
c p weight -140 1 0
c p weight -137 1 0
c p weight 137 -1 0
c p weight 143 6.12323399573676603586882014729198302312846062338790031898128063403419218957424163818359375E-17 0
c p weight -143 1 0
c p weight 144 1 0
c p weight -144 1 0
c p weight -141 1 0
c p weight 141 -1 0
c p weight 147 -1 0
c p weight -147 1 0
c p weight 148 3.673940397442059375002259206809000622711899723162043418511757408850826323032379150390625E-16 0
c p weight -148 1 0
c p weight -145 1 0
c p weight 145 -1 0
c p weight -149 1 0
c p weight 149 -1 0
c p weight 154 -0.9684306916316953728340877205482684075832366943359375 0
c p weight -154 1 0
c p weight 155 0.249282962726609602643890184481278993189334869384765625 0
c p weight -155 1 0
c p weight -152 1 0
c p weight 152 -1 0
c p weight -156 1 0
c p weight 156 -1 0
c p weight 161 1 0
c p weight -161 1 0
c p weight 162 0 0
c p weight -162 1 0
c p weight -159 1 0
c p weight 159 -1 0
c p weight 165 6.12323399573676603586882014729198302312846062338790031898128063403419218957424163818359375E-17 0
c p weight -165 1 0
c p weight 166 1 0
c p weight -166 1 0
c p weight -163 1 0
c p weight 163 -1 0
c p weight 169 -0.99021515964612916160803024467895738780498504638671875 0
c p weight -169 1 0
c p weight 170 -0.139549050899642146372769957451964728534221649169921875 0
c p weight -170 1 0
c p weight -167 1 0
c p weight 167 -1 0
c p weight 173 6.12323399573676603586882014729198302312846062338790031898128063403419218957424163818359375E-17 0
c p weight -173 1 0
c p weight 174 1 0
c p weight -174 1 0
c p weight -171 1 0
c p weight 171 -1 0
c p weight 177 -1 0
c p weight -177 1 0
c p weight 178 3.673940397442059375002259206809000622711899723162043418511757408850826323032379150390625E-16 0
c p weight -178 1 0
c p weight -175 1 0
c p weight 175 -1 0
c p weight 181 1 0
c p weight -181 1 0
c p weight 182 0 0
c p weight -182 1 0
c p weight -179 1 0
c p weight 179 -1 0
c p weight 185 6.12323399573676603586882014729198302312846062338790031898128063403419218957424163818359375E-17 0
c p weight -185 1 0
c p weight 186 1 0
c p weight -186 1 0
c p weight -183 1 0
c p weight 183 -1 0
c p weight 189 -0.998663479658014718864933456643484532833099365234375 0
c p weight -189 1 0
c p weight 190 -0.05168417937189277722165314798985491506755352020263671875 0
c p weight -190 1 0
c p weight -187 1 0
c p weight 187 -1 0
c p weight 193 6.12323399573676603586882014729198302312846062338790031898128063403419218957424163818359375E-17 0
c p weight -193 1 0
c p weight 194 1 0
c p weight -194 1 0
c p weight -191 1 0
c p weight 191 -1 0
c p weight 197 -1 0
c p weight -197 1 0
c p weight 198 3.673940397442059375002259206809000622711899723162043418511757408850826323032379150390625E-16 0
c p weight -198 1 0
c p weight -195 1 0
c p weight 195 -1 0
c p weight -199 1 0
c p weight 199 -1 0
c p weight -202 1 0
c p weight 202 -1 0
c p weight 207 1 0
c p weight -207 1 0
c p weight 208 0 0
c p weight -208 1 0
c p weight -205 1 0
c p weight 205 -1 0
c p weight 211 6.12323399573676603586882014729198302312846062338790031898128063403419218957424163818359375E-17 0
c p weight -211 1 0
c p weight 212 1 0
c p weight -212 1 0
c p weight -209 1 0
c p weight 209 -1 0
c p weight 215 -0.95450377842999867272766323367250151932239532470703125 0
c p weight -215 1 0
c p weight 216 -0.298198821196288432755494568482390604913234710693359375 0
c p weight -216 1 0
c p weight -213 1 0
c p weight 213 -1 0
c p weight 219 6.12323399573676603586882014729198302312846062338790031898128063403419218957424163818359375E-17 0
c p weight -219 1 0
c p weight 220 1 0
c p weight -220 1 0
c p weight -217 1 0
c p weight 217 -1 0
c p weight 223 -1 0
c p weight -223 1 0
c p weight 224 3.673940397442059375002259206809000622711899723162043418511757408850826323032379150390625E-16 0
c p weight -224 1 0
c p weight -221 1 0
c p weight 221 -1 0
c p weight 227 1 0
c p weight -227 1 0
c p weight 228 0 0
c p weight -228 1 0
c p weight -225 1 0
c p weight 225 -1 0
c p weight 231 6.12323399573676603586882014729198302312846062338790031898128063403419218957424163818359375E-17 0
c p weight -231 1 0
c p weight 232 1 0
c p weight -232 1 0
c p weight -229 1 0
c p weight 229 -1 0
c p weight 235 -0.90446933247735505911890641073114238679409027099609375 0
c p weight -235 1 0
c p weight 236 -0.426538657811889099225055588249233551323413848876953125 0
c p weight -236 1 0
c p weight -233 1 0
c p weight 233 -1 0
c p weight 239 6.12323399573676603586882014729198302312846062338790031898128063403419218957424163818359375E-17 0
c p weight -239 1 0
c p weight 240 1 0
c p weight -240 1 0
c p weight -237 1 0
c p weight 237 -1 0
c p weight 243 -1 0
c p weight -243 1 0
c p weight 244 3.673940397442059375002259206809000622711899723162043418511757408850826323032379150390625E-16 0
c p weight -244 1 0
c p weight -241 1 0
c p weight 241 -1 0
c p weight 247 1 0
c p weight -247 1 0
c p weight 248 0 0
c p weight -248 1 0
c p weight -245 1 0
c p weight 245 -1 0
c p weight 251 6.12323399573676603586882014729198302312846062338790031898128063403419218957424163818359375E-17 0
c p weight -251 1 0
c p weight 252 1 0
c p weight -252 1 0
c p weight -249 1 0
c p weight 249 -1 0
c p weight 255 -0.75839122990779872512945303242304362356662750244140625 0
c p weight -255 1 0
c p weight 256 -0.651799618286890591889459756202995777130126953125 0
c p weight -256 1 0
c p weight -253 1 0
c p weight 253 -1 0
c p weight 259 6.12323399573676603586882014729198302312846062338790031898128063403419218957424163818359375E-17 0
c p weight -259 1 0
c p weight 260 1 0
c p weight -260 1 0
c p weight -257 1 0
c p weight 257 -1 0
c p weight 263 -1 0
c p weight -263 1 0
c p weight 264 3.673940397442059375002259206809000622711899723162043418511757408850826323032379150390625E-16 0
c p weight -264 1 0
c p weight -261 1 0
c p weight 261 -1 0
c p weight 265 0.5 0
c p weight -265 1 0
265 0
-5 0
-3 0
-1 0
-7 1 0
-7 2 0
7 -1 -2 0
8 1 -2 0
8 -1 2 0
-8 1 2 0
-8 -1 -2 0
-9 10 0
-9 8 0
-9 -1 0
9 -10 1 -8 0
10 -1 8 0
-10 1 8 0
-11 8 0
10 -11 -1 0
-10 -11 1 0
10 11 1 -8 0
-10 11 -1 -8 0
-12 8 0
10 -12 1 0
-10 -12 -1 0
10 12 -1 -8 0
-10 12 1 -8 0
-13 10 0
-13 8 0
13 -10 -8 0
14 10 -8 0
14 -10 8 0
-14 10 8 0
-14 -10 -8 0
-15 10 0
-15 14 0
-15 -16 0
15 16 -10 -14 0
16 10 -14 0
-16 10 14 0
-17 10 0
16 -17 -14 0
-16 -17 14 0
16 17 -10 14 0
-16 17 -10 -14 0
-18 10 0
16 -18 14 0
-16 -18 -14 0
16 18 -10 -14 0
-16 18 -10 14 0
-19 3 0
-19 4 0
19 -3 -4 0
20 3 -4 0
20 -3 4 0
-20 3 4 0
-20 -3 -4 0
-21 22 0
-21 20 0
-21 -3 0
21 -22 3 -20 0
22 -3 20 0
-22 3 20 0
-23 20 0
22 -23 -3 0
-22 -23 3 0
22 23 3 -20 0
-22 23 -3 -20 0
-24 20 0
22 -24 3 0
-22 -24 -3 0
22 24 -3 -20 0
-22 24 3 -20 0
-25 22 0
-25 20 0
25 -22 -20 0
26 22 -20 0
26 -22 20 0
-26 22 20 0
-26 -22 -20 0
-27 22 0
-27 26 0
-27 -28 0
27 28 -22 -26 0
28 22 -26 0
-28 22 26 0
-29 22 0
28 -29 -26 0
-28 -29 26 0
28 29 -22 26 0
-28 29 -22 -26 0
-30 22 0
28 -30 26 0
-28 -30 -26 0
28 30 -22 -26 0
-28 30 -22 26 0
-31 10 0
-31 28 0
-31 22 -16 0
-31 -22 16 0
31 -10 22 16 -28 0
31 -10 -22 -16 -28 0
33 10 -22 0
33 -10 22 0
-33 10 22 0
-33 -10 -22 0
32 16 -28 0
32 -16 28 0
-32 16 28 0
-32 -16 -28 0
-34 33 0
-34 28 0
-34 -35 0
34 35 -33 -28 0
35 33 -28 0
-35 33 28 0
-36 33 0
35 -36 -28 0
-35 -36 28 0
35 36 -33 28 0
-35 36 -33 -28 0
-37 33 0
35 -37 28 0
-35 -37 -28 0
35 37 -33 -28 0
-35 37 -33 28 0
-38 10 0
-38 35 0
-38 33 -32 0
-38 -33 32 0
38 -10 33 32 -35 0
38 -10 -33 -32 -35 0
40 10 -33 0
40 -10 33 0
-40 10 33 0
-40 -10 -33 0
39 32 -35 0
39 -32 35 0
-39 32 35 0
-39 -32 -35 0
-41 5 0
-41 6 0
41 -5 -6 0
42 5 -6 0
42 -5 6 0
-42 5 6 0
-42 -5 -6 0
-43 44 0
-43 42 0
-43 -5 0
43 -44 5 -42 0
44 -5 42 0
-44 5 42 0
-45 42 0
44 -45 -5 0
-44 -45 5 0
44 45 5 -42 0
-44 45 -5 -42 0
-46 42 0
44 -46 5 0
-44 -46 -5 0
44 46 -5 -42 0
-44 46 5 -42 0
-47 44 0
-47 42 0
47 -44 -42 0
48 44 -42 0
48 -44 42 0
-48 44 42 0
-48 -44 -42 0
-49 44 0
-49 48 0
-49 -50 0
49 50 -44 -48 0
50 44 -48 0
-50 44 48 0
-51 44 0
50 -51 -48 0
-50 -51 48 0
50 51 -44 48 0
-50 51 -44 -48 0
-52 44 0
50 -52 48 0
-50 -52 -48 0
50 52 -44 -48 0
-50 52 -44 48 0
-53 10 0
-53 50 0
-53 44 -39 0
-53 -44 39 0
53 -10 44 39 -50 0
53 -10 -44 -39 -50 0
55 10 -44 0
55 -10 44 0
-55 10 44 0
-55 -10 -44 0
54 39 -50 0
54 -39 50 0
-54 39 50 0
-54 -39 -50 0
-56 55 0
-56 50 0
-56 -57 0
56 57 -55 -50 0
57 55 -50 0
-57 55 50 0
-58 55 0
57 -58 -50 0
-57 -58 50 0
57 58 -55 50 0
-57 58 -55 -50 0
-59 55 0
57 -59 50 0
-57 -59 -50 0
57 59 -55 -50 0
-57 59 -55 50 0
-60 10 0
-60 57 0
-60 55 -54 0
-60 -55 54 0
60 -10 55 54 -57 0
60 -10 -55 -54 -57 0
62 10 -55 0
62 -10 55 0
-62 10 55 0
-62 -10 -55 0
61 54 -57 0
61 -54 57 0
-61 54 57 0
-61 -54 -57 0
-63 10 0
-63 61 0
63 -10 -61 0
64 10 -61 0
64 -10 61 0
-64 10 61 0
-64 -10 -61 0
-65 66 0
-65 64 0
-65 -10 0
65 -66 10 -64 0
66 -10 64 0
-66 10 64 0
-67 64 0
66 -67 -10 0
-66 -67 10 0
66 67 10 -64 0
-66 67 -10 -64 0
-68 64 0
66 -68 10 0
-66 -68 -10 0
66 68 -10 -64 0
-66 68 10 -64 0
-69 66 0
-69 64 0
69 -66 -64 0
70 66 -64 0
70 -66 64 0
-70 66 64 0
-70 -66 -64 0
-71 66 0
-71 70 0
-71 -72 0
71 72 -66 -70 0
72 66 -70 0
-72 66 70 0
-73 66 0
72 -73 -70 0
-72 -73 70 0
72 73 -66 70 0
-72 73 -66 -70 0
-74 66 0
72 -74 70 0
-72 -74 -70 0
72 74 -66 -70 0
-72 74 -66 70 0
-75 40 0
-75 57 0
-75 62 -35 0
-75 -62 35 0
75 -40 62 35 -57 0
75 -40 -62 -35 -57 0
77 40 -62 0
77 -40 62 0
-77 40 62 0
-77 -40 -62 0
76 35 -57 0
76 -35 57 0
-76 35 57 0
-76 -35 -57 0
-78 77 0
-78 57 0
-78 -79 0
78 79 -77 -57 0
79 77 -57 0
-79 77 57 0
-80 77 0
79 -80 -57 0
-79 -80 57 0
79 80 -77 57 0
-79 80 -77 -57 0
-81 77 0
79 -81 57 0
-79 -81 -57 0
79 81 -77 -57 0
-79 81 -77 57 0
-82 40 0
-82 79 0
-82 77 -76 0
-82 -77 76 0
82 -40 77 76 -79 0
82 -40 -77 -76 -79 0
84 40 -77 0
84 -40 77 0
-84 40 77 0
-84 -40 -77 0
83 76 -79 0
83 -76 79 0
-83 76 79 0
-83 -76 -79 0
-85 40 0
-85 83 0
85 -40 -83 0
86 40 -83 0
86 -40 83 0
-86 40 83 0
-86 -40 -83 0
-87 88 0
-87 86 0
-87 -40 0
87 -88 40 -86 0
88 -40 86 0
-88 40 86 0
-89 86 0
88 -89 -40 0
-88 -89 40 0
88 89 40 -86 0
-88 89 -40 -86 0
-90 86 0
88 -90 40 0
-88 -90 -40 0
88 90 -40 -86 0
-88 90 40 -86 0
-91 88 0
-91 86 0
91 -88 -86 0
92 88 -86 0
92 -88 86 0
-92 88 86 0
-92 -88 -86 0
-93 88 0
-93 92 0
-93 -94 0
93 94 -88 -92 0
94 88 -92 0
-94 88 92 0
-95 88 0
94 -95 -92 0
-94 -95 92 0
94 95 -88 92 0
-94 95 -88 -92 0
-96 88 0
94 -96 92 0
-94 -96 -92 0
94 96 -88 -92 0
-94 96 -88 92 0
-97 66 0
-97 94 0
-97 88 -72 0
-97 -88 72 0
97 -66 88 72 -94 0
97 -66 -88 -72 -94 0
99 66 -88 0
99 -66 88 0
-99 66 88 0
-99 -66 -88 0
98 72 -94 0
98 -72 94 0
-98 72 94 0
-98 -72 -94 0
-100 99 0
-100 94 0
-100 -101 0
100 101 -99 -94 0
101 99 -94 0
-101 99 94 0
-102 99 0
101 -102 -94 0
-101 -102 94 0
101 102 -99 94 0
-101 102 -99 -94 0
-103 99 0
101 -103 94 0
-101 -103 -94 0
101 103 -99 -94 0
-101 103 -99 94 0
-104 66 0
-104 101 0
-104 99 -98 0
-104 -99 98 0
104 -66 99 98 -101 0
104 -66 -99 -98 -101 0
106 66 -99 0
106 -66 99 0
-106 66 99 0
-106 -66 -99 0
105 98 -101 0
105 -98 101 0
-105 98 101 0
-105 -98 -101 0
-107 84 0
-107 79 0
107 -84 -79 0
108 84 -79 0
108 -84 79 0
-108 84 79 0
-108 -84 -79 0
-109 110 0
-109 108 0
-109 -84 0
109 -110 84 -108 0
110 -84 108 0
-110 84 108 0
-111 108 0
110 -111 -84 0
-110 -111 84 0
110 111 84 -108 0
-110 111 -84 -108 0
-112 108 0
110 -112 84 0
-110 -112 -84 0
110 112 -84 -108 0
-110 112 84 -108 0
-113 110 0
-113 108 0
113 -110 -108 0
114 110 -108 0
114 -110 108 0
-114 110 108 0
-114 -110 -108 0
-115 110 0
-115 114 0
-115 -116 0
115 116 -110 -114 0
116 110 -114 0
-116 110 114 0
-117 110 0
116 -117 -114 0
-116 -117 114 0
116 117 -110 114 0
-116 117 -110 -114 0
-118 110 0
116 -118 114 0
-116 -118 -114 0
116 118 -110 -114 0
-116 118 -110 114 0
-119 66 0
-119 116 0
-119 110 -105 0
-119 -110 105 0
119 -66 110 105 -116 0
119 -66 -110 -105 -116 0
121 66 -110 0
121 -66 110 0
-121 66 110 0
-121 -66 -110 0
120 105 -116 0
120 -105 116 0
-120 105 116 0
-120 -105 -116 0
-122 121 0
-122 116 0
-122 -123 0
122 123 -121 -116 0
123 121 -116 0
-123 121 116 0
-124 121 0
123 -124 -116 0
-123 -124 116 0
123 124 -121 116 0
-123 124 -121 -116 0
-125 121 0
123 -125 116 0
-123 -125 -116 0
123 125 -121 -116 0
-123 125 -121 116 0
-126 66 0
-126 123 0
-126 121 -120 0
-126 -121 120 0
126 -66 121 120 -123 0
126 -66 -121 -120 -123 0
128 66 -121 0
128 -66 121 0
-128 66 121 0
-128 -66 -121 0
127 120 -123 0
127 -120 123 0
-127 120 123 0
-127 -120 -123 0
-129 66 0
-129 127 0
-129 -130 0
129 130 -66 -127 0
130 66 -127 0
-130 66 127 0
-131 66 0
130 -131 -127 0
-130 -131 127 0
130 131 -66 127 0
-130 131 -66 -127 0
-132 66 0
130 -132 127 0
-130 -132 -127 0
130 132 -66 -127 0
-130 132 -66 127 0
-133 134 0
-133 130 0
-133 -66 0
133 -134 66 -130 0
134 -66 130 0
-134 66 130 0
-135 130 0
134 -135 -66 0
-134 -135 66 0
134 135 66 -130 0
-134 135 -66 -130 0
-136 130 0
134 -136 66 0
-134 -136 -66 0
134 136 -66 -130 0
-134 136 66 -130 0
-137 134 0
-137 130 0
-137 -138 0
137 138 -134 -130 0
138 134 -130 0
-138 134 130 0
-139 134 0
138 -139 -130 0
-138 -139 130 0
138 139 -134 130 0
-138 139 -134 -130 0
-140 134 0
138 -140 130 0
-138 -140 -130 0
138 140 -134 -130 0
-138 140 -134 130 0
-141 142 0
-141 138 0
-141 -134 0
141 -142 134 -138 0
142 -134 138 0
-142 134 138 0
-143 138 0
142 -143 -134 0
-142 -143 134 0
142 143 134 -138 0
-142 143 -134 -138 0
-144 138 0
142 -144 134 0
-142 -144 -134 0
142 144 -134 -138 0
-142 144 134 -138 0
-145 142 0
-145 138 0
-145 -146 0
145 146 -142 -138 0
146 142 -138 0
-146 142 138 0
-147 142 0
146 -147 -138 0
-146 -147 138 0
146 147 -142 138 0
-146 147 -142 -138 0
-148 142 0
146 -148 138 0
-146 -148 -138 0
146 148 -142 -138 0
-146 148 -142 138 0
-149 106 0
-149 123 0
-149 128 -101 0
-149 -128 101 0
149 -106 128 101 -123 0
149 -106 -128 -101 -123 0
151 106 -128 0
151 -106 128 0
-151 106 128 0
-151 -106 -128 0
150 101 -123 0
150 -101 123 0
-150 101 123 0
-150 -101 -123 0
-152 151 0
-152 123 0
-152 -153 0
152 153 -151 -123 0
153 151 -123 0
-153 151 123 0
-154 151 0
153 -154 -123 0
-153 -154 123 0
153 154 -151 123 0
-153 154 -151 -123 0
-155 151 0
153 -155 123 0
-153 -155 -123 0
153 155 -151 -123 0
-153 155 -151 123 0
-156 106 0
-156 153 0
-156 151 -150 0
-156 -151 150 0
156 -106 151 150 -153 0
156 -106 -151 -150 -153 0
158 106 -151 0
158 -106 151 0
-158 106 151 0
-158 -106 -151 0
157 150 -153 0
157 -150 153 0
-157 150 153 0
-157 -150 -153 0
-159 106 0
-159 157 0
-159 -160 0
159 160 -106 -157 0
160 106 -157 0
-160 106 157 0
-161 106 0
160 -161 -157 0
-160 -161 157 0
160 161 -106 157 0
-160 161 -106 -157 0
-162 106 0
160 -162 157 0
-160 -162 -157 0
160 162 -106 -157 0
-160 162 -106 157 0
-163 164 0
-163 160 0
-163 -106 0
163 -164 106 -160 0
164 -106 160 0
-164 106 160 0
-165 160 0
164 -165 -106 0
-164 -165 106 0
164 165 106 -160 0
-164 165 -106 -160 0
-166 160 0
164 -166 106 0
-164 -166 -106 0
164 166 -106 -160 0
-164 166 106 -160 0
-167 164 0
-167 160 0
-167 -168 0
167 168 -164 -160 0
168 164 -160 0
-168 164 160 0
-169 164 0
168 -169 -160 0
-168 -169 160 0
168 169 -164 160 0
-168 169 -164 -160 0
-170 164 0
168 -170 160 0
-168 -170 -160 0
168 170 -164 -160 0
-168 170 -164 160 0
-171 172 0
-171 168 0
-171 -164 0
171 -172 164 -168 0
172 -164 168 0
-172 164 168 0
-173 168 0
172 -173 -164 0
-172 -173 164 0
172 173 164 -168 0
-172 173 -164 -168 0
-174 168 0
172 -174 164 0
-172 -174 -164 0
172 174 -164 -168 0
-172 174 164 -168 0
-175 172 0
-175 168 0
-175 -176 0
175 176 -172 -168 0
176 172 -168 0
-176 172 168 0
-177 172 0
176 -177 -168 0
-176 -177 168 0
176 177 -172 168 0
-176 177 -172 -168 0
-178 172 0
176 -178 168 0
-176 -178 -168 0
176 178 -172 -168 0
-176 178 -172 168 0
-179 158 0
-179 153 0
-179 -180 0
179 180 -158 -153 0
180 158 -153 0
-180 158 153 0
-181 158 0
180 -181 -153 0
-180 -181 153 0
180 181 -158 153 0
-180 181 -158 -153 0
-182 158 0
180 -182 153 0
-180 -182 -153 0
180 182 -158 -153 0
-180 182 -158 153 0
-183 184 0
-183 180 0
-183 -158 0
183 -184 158 -180 0
184 -158 180 0
-184 158 180 0
-185 180 0
184 -185 -158 0
-184 -185 158 0
184 185 158 -180 0
-184 185 -158 -180 0
-186 180 0
184 -186 158 0
-184 -186 -158 0
184 186 -158 -180 0
-184 186 158 -180 0
-187 184 0
-187 180 0
-187 -188 0
187 188 -184 -180 0
188 184 -180 0
-188 184 180 0
-189 184 0
188 -189 -180 0
-188 -189 180 0
188 189 -184 180 0
-188 189 -184 -180 0
-190 184 0
188 -190 180 0
-188 -190 -180 0
188 190 -184 -180 0
-188 190 -184 180 0
-191 192 0
-191 188 0
-191 -184 0
191 -192 184 -188 0
192 -184 188 0
-192 184 188 0
-193 188 0
192 -193 -184 0
-192 -193 184 0
192 193 184 -188 0
-192 193 -184 -188 0
-194 188 0
192 -194 184 0
-192 -194 -184 0
192 194 -184 -188 0
-192 194 184 -188 0
-195 192 0
-195 188 0
-195 -196 0
195 196 -192 -188 0
196 192 -188 0
-196 192 188 0
-197 192 0
196 -197 -188 0
-196 -197 188 0
196 197 -192 188 0
-196 197 -192 -188 0
-198 192 0
196 -198 188 0
-196 -198 -188 0
196 198 -192 -188 0
-196 198 -192 188 0
-199 172 0
-199 196 0
-199 192 -176 0
-199 -192 176 0
199 -172 192 176 -196 0
199 -172 -192 -176 -196 0
201 172 -192 0
201 -172 192 0
-201 172 192 0
-201 -172 -192 0
200 176 -196 0
200 -176 196 0
-200 176 196 0
-200 -176 -196 0
-202 142 0
-202 200 0
-202 172 -146 0
-202 -172 146 0
202 -142 172 146 -200 0
202 -142 -172 -146 -200 0
204 142 -172 0
204 -142 172 0
-204 142 172 0
-204 -142 -172 0
203 146 -200 0
203 -146 200 0
-203 146 200 0
-203 -146 -200 0
-205 142 0
-205 203 0
-205 -206 0
205 206 -142 -203 0
206 142 -203 0
-206 142 203 0
-207 142 0
206 -207 -203 0
-206 -207 203 0
206 207 -142 203 0
-206 207 -142 -203 0
-208 142 0
206 -208 203 0
-206 -208 -203 0
206 208 -142 -203 0
-206 208 -142 203 0
-209 210 0
-209 206 0
-209 -142 0
209 -210 142 -206 0
210 -142 206 0
-210 142 206 0
-211 206 0
210 -211 -142 0
-210 -211 142 0
210 211 142 -206 0
-210 211 -142 -206 0
-212 206 0
210 -212 142 0
-210 -212 -142 0
210 212 -142 -206 0
-210 212 142 -206 0
-213 210 0
-213 206 0
-213 -214 0
213 214 -210 -206 0
214 210 -206 0
-214 210 206 0
-215 210 0
214 -215 -206 0
-214 -215 206 0
214 215 -210 206 0
-214 215 -210 -206 0
-216 210 0
214 -216 206 0
-214 -216 -206 0
214 216 -210 -206 0
-214 216 -210 206 0
-217 218 0
-217 214 0
-217 -210 0
217 -218 210 -214 0
218 -210 214 0
-218 210 214 0
-219 214 0
218 -219 -210 0
-218 -219 210 0
218 219 210 -214 0
-218 219 -210 -214 0
-220 214 0
218 -220 210 0
-218 -220 -210 0
218 220 -210 -214 0
-218 220 210 -214 0
-221 218 0
-221 214 0
-221 -222 0
221 222 -218 -214 0
222 218 -214 0
-222 218 214 0
-223 218 0
222 -223 -214 0
-222 -223 214 0
222 223 -218 214 0
-222 223 -218 -214 0
-224 218 0
222 -224 214 0
-222 -224 -214 0
222 224 -218 -214 0
-222 224 -218 214 0
-225 204 0
-225 200 0
-225 -226 0
225 226 -204 -200 0
226 204 -200 0
-226 204 200 0
-227 204 0
226 -227 -200 0
-226 -227 200 0
226 227 -204 200 0
-226 227 -204 -200 0
-228 204 0
226 -228 200 0
-226 -228 -200 0
226 228 -204 -200 0
-226 228 -204 200 0
-229 230 0
-229 226 0
-229 -204 0
229 -230 204 -226 0
230 -204 226 0
-230 204 226 0
-231 226 0
230 -231 -204 0
-230 -231 204 0
230 231 204 -226 0
-230 231 -204 -226 0
-232 226 0
230 -232 204 0
-230 -232 -204 0
230 232 -204 -226 0
-230 232 204 -226 0
-233 230 0
-233 226 0
-233 -234 0
233 234 -230 -226 0
234 230 -226 0
-234 230 226 0
-235 230 0
234 -235 -226 0
-234 -235 226 0
234 235 -230 226 0
-234 235 -230 -226 0
-236 230 0
234 -236 226 0
-234 -236 -226 0
234 236 -230 -226 0
-234 236 -230 226 0
-237 238 0
-237 234 0
-237 -230 0
237 -238 230 -234 0
238 -230 234 0
-238 230 234 0
-239 234 0
238 -239 -230 0
-238 -239 230 0
238 239 230 -234 0
-238 239 -230 -234 0
-240 234 0
238 -240 230 0
-238 -240 -230 0
238 240 -230 -234 0
-238 240 230 -234 0
-241 238 0
-241 234 0
-241 -242 0
241 242 -238 -234 0
242 238 -234 0
-242 238 234 0
-243 238 0
242 -243 -234 0
-242 -243 234 0
242 243 -238 234 0
-242 243 -238 -234 0
-244 238 0
242 -244 234 0
-242 -244 -234 0
242 244 -238 -234 0
-242 244 -238 234 0
-245 201 0
-245 196 0
-245 -246 0
245 246 -201 -196 0
246 201 -196 0
-246 201 196 0
-247 201 0
246 -247 -196 0
-246 -247 196 0
246 247 -201 196 0
-246 247 -201 -196 0
-248 201 0
246 -248 196 0
-246 -248 -196 0
246 248 -201 -196 0
-246 248 -201 196 0
-249 250 0
-249 246 0
-249 -201 0
249 -250 201 -246 0
250 -201 246 0
-250 201 246 0
-251 246 0
250 -251 -201 0
-250 -251 201 0
250 251 201 -246 0
-250 251 -201 -246 0
-252 246 0
250 -252 201 0
-250 -252 -201 0
250 252 -201 -246 0
-250 252 201 -246 0
-253 250 0
-253 246 0
-253 -254 0
253 254 -250 -246 0
254 250 -246 0
-254 250 246 0
-255 250 0
254 -255 -246 0
-254 -255 246 0
254 255 -250 246 0
-254 255 -250 -246 0
-256 250 0
254 -256 246 0
-254 -256 -246 0
254 256 -250 -246 0
-254 256 -250 246 0
-257 258 0
-257 254 0
-257 -250 0
257 -258 250 -254 0
258 -250 254 0
-258 250 254 0
-259 254 0
258 -259 -250 0
-258 -259 250 0
258 259 250 -254 0
-258 259 -250 -254 0
-260 254 0
258 -260 250 0
-258 -260 -250 0
258 260 -250 -254 0
-258 260 250 -254 0
-261 258 0
-261 254 0
-261 -262 0
261 262 -258 -254 0
262 258 -254 0
-262 258 254 0
-263 258 0
262 -263 -254 0
-262 -263 254 0
262 263 -258 254 0
-262 263 -258 -254 0
-264 258 0
262 -264 254 0
-262 -264 -254 0
262 264 -258 -254 0
-262 264 -258 254 0
-218 0
-238 0
-242 0
-258 0
-262 0
